StudentsNr = 10;
InstructorsNr = 8;
DaysNr = 2;
SlotsPerDay = 15;
AvailabilitySlotsLenght = 3;
RoomNr = 2;
ProgrammNr = 1;
DegreeNr = 2;
RolesNr = 2;
CoursesNr = 4;
InstructorsProgramm = [{1}, {1}, {1}, {1}, {1}, {1}, {1}, {1}];
InstructorRolesPerProgramm = [|{2, 3, 4, 5}, {1, 3, 4, 6, 8}|];
InstructorsAvailability = [|1, 1, 1, 1, 1, 1, 1, 1, 1, 1, |1, 1, 1, 1, 1, 1, 1, 1, 1, 1, |0, 1, 1, 1, 1, 1, 1, 1, 1, 1, |1, 0, 0, 1, 1, 1, 1, 1, 1, 1, |0, 1, 1, 1, 1, 0, 1, 1, 1, 1, |1, 1, 1, 1, 1, 1, 1, 0, 1, 1, |1, 1, 1, 1, 1, 1, 1, 1, 1, 1, |0, 1, 1, 1, 1, 0, 0, 1, 1, 1|];
StudentsProgramm = [1, 1, 1, 1, 1, 1, 1, 1, 1, 1];
StudentsDegree = [1, 1, 1, 2, 2, 1, 2, 2, 2, 1];
StudentsSupervisorId = [6, 3, 6, 6, 8, 6, 2, 7, 3, 3];
StudentsCourseIds = [{1, 2}, {1, 2}, {2, 3}, {1, 3, 4}, {1, 3, 4}, {1, 4}, {1, 3, 4}, {2, 3, 4}, {1, 2, 4}, {3, 4}];
StudentsAvailability = [|1, 0, 0, 1, 1, 1, 1, 1, 0, 0, |0, 0, 1, 1, 1, 0, 0, 0, 1, 1, |0, 0, 1, 1, 1, 1, 1, 0, 1, 1, |0, 1, 1, 1, 1, 1, 1, 1, 1, 1, |1, 1, 1, 1, 1, 1, 1, 1, 0, 1, |1, 1, 1, 1, 1, 1, 0, 1, 1, 1, |0, 0, 1, 1, 1, 0, 1, 1, 1, 1, |1, 0, 1, 1, 1, 1, 1, 0, 1, 1, |1, 1, 1, 1, 1, 1, 1, 1, 0, 1, |1, 1, 1, 1, 1, 1, 1, 1, 1, 1|];
TheoryticalMinCard = [0, 0, 0, 0, 0, 0, 0, 0, 0, 0];
CoursesInstructorIds = [{2, 3, 5, 6, 8}, {2, 5, 6, 7, 8}, {4, 6, 7}, {1, 2}];
RolesDemands = [2, 2];
RolesContinuity = [1];
ExamLen = [1, 1, 1, 2, 2, 1, 2, 2, 2, 1];
LunchTsMinLen = 2;
LunchStarts = [7..8, 22..23];
SupervisorAvailable = 5;
OptimalLunchLenght = [2, 2];
OptimalStartTs = [1, 2];
OptimalFinishTs = [1, 14];
MinimizeRooms = 500;
RolesSoftContinuity = [|1, 2|2, 0|];
SameDegreeInRoom = 0;
Mergeability = 0;
